28 26 12 76 33 9 71 65 35 34 78 79 3 77 
58 40 53 
6 94 95 99 59 92 98 37 100 91 16 61 5 84 17 45 60 89 
52 7 19 11 64 49 36 46 47 48 82 8 83 18 
87 57 2 21 73 75 22 41 15 43 42 14 44 38 86 85 93 96 97 13 
27 69 31 88 62 63 90 30 51 81 29 24 55 25 39 23 67 56 74 72 4 54 80 68 50 70 10 32 66 20 1 
